0 3915
2 3875
3 3859
4 3798
5 3733
10 3722
12 3696
22 3677
23 3668
29 3642
35 3626
36 3624
37 3589
38 3531
44 3487
51 3443
53 3422
57 3420
64 3415
87 3414
88 3410
92 3394
93 3370
103 3357
127 3334
162 3323
168 3312
192 3308
197 3302
203 3272
207 3266
210 3260
221 3255
240 3245
249 3244
253 3243
255 3239
261 3213
292 3212
305 3211
313 3203
318 3199
339 3193
343 3182
525 3172
1079 3170
1124 3165
1160 3163
1213 3161
1239 3155
1347 3152
1851 3149
3264 3147
3823 3146
3896 3133
5296 3131
5335 3129
5541 3121
6996 3120
